90014.21
0 1 2 3 4 5 6 7 8 9 10 17 16 18 11 103 105 107 109 111 112 110 108 106 104 102 101 100 99 98 97 96 95 94 93 92 91 90 89 88 87 86 85 84 83 82 81 80 79 78 77 76 75 74 73 72 71 70 69 68 67 66 65 64 63 62 61 60 59 58 57 56 55 54 53 52 51 50 49 48 47 46 45 44 43 41 42 40 39 38 37 33 31 32 30 206 205 204 203 202 200 201 199 207 208 209 210 211 212 213 214 23 24 25 26 35 34 36 29 28 27 22 21 20 19 15 13 14 12 222 221 220 219 218 216 217 176 175 174 173 172 171 170 169 168 167 166 165 164 163 162 161 160 157 156 158 159 155 154 153 152 151 150 149 148 145 144 143 146 147 142 141 139 140 138 137 136 135 134 133 132 131 130 129 128 124 123 127 126 122 121 119 120 118 117 116 115 114 113 186 188 190 192 194 196 198 197 195 193 191 189 187 185 184 183 125 180 181 182 179 177 178 215 223 224 225